!   File created by MacMolPlt 7.7
 $CONTRL SCFTYP=RHF RUNTYP=OPTIMIZE MAXIT=30 MULT=1 $END
 $SYSTEM TIMLIM=525600 MEMORY=1000000 MEMDDI=100 $END
 $BASIS GBASIS=N31 NGAUSS=6 $END
 $SCF DIRSCF=.TRUE. $END
 $STATPT OPTTOL=0.0005 NSTEP=50 $END
 $DATA 
oxetanone
CNV 2

C     6.0     0.00000     0.00000     0.42768
O     8.0     0.00000     0.00000     1.70052
C     6.0     1.18271     0.00000    -0.39443
O     8.0     0.00000     0.00000    -1.24441
H     1.0     1.84087     0.93081    -0.38926
 $END
