!   File created by MacMolPlt 7.7
 $CONTRL SCFTYP=RHF RUNTYP=OPTIMIZE MAXIT=30 MULT=1 $END
 $SYSTEM TIMLIM=525600 MEMORY=1000000 MEMDDI=100 $END
 $BASIS GBASIS=N31 NGAUSS=6 $END
 $SCF DIRSCF=.TRUE. $END
 $STATPT OPTTOL=0.0005 NSTEP=50 $END
 $DATA 
CO
CN 2

O     8.0     0.00000     0.00000     0.67172
C     6.0     0.00000     0.00000    -0.50814
 $END
